100
40 0
6 0
41 0
36 3
16 1
38 4
3 3
11 4
16 2
13 0
38 3
6 3
6 2
22 3
25 4
20 0
19 4
7 4
23 4
30 3
43 0
15 0
36 4
6 4
15 2
29 3
3 2
28 3
1 0
13 2
34 0
27 0
22 4
39 2
15 1
2 4
20 4
18 3
31 1
24 4
29 2
28 0
20 1
39 4
5 0
21 0
27 4
41 4
42 4
39 1
11 1
16 0
4 0
4 4
16 4
33 3
5 4
0 0
33 2
42 1
25 3
4 3
32 4
13 3
33 1
30 0
1 4
21 3
27 3
39 0
3 0
9 4
10 0
37 3
41 1
42 0
10 4
25 0
21 1
37 4
29 0
29 1
19 0
18 1
31 0
38 0
18 0
40 4
9 2
0 3
9 0
7 0
43 4
24 0
1 3
43 3
41 2
36 0
37 0
2 0

